20	5
0	7	1	7	4	2	3	20	5
1	2	19	6
2	1	11
3	2	19	14
4	1	13
5	1	19
6	1	15
7	1	10
8	1	18
9	1	12
10	2	13	17
11	0
12	1	16
13	1	8
14	1	9
15	1	21
16	1	21
17	1	21
18	1	21
19	1	21
20	1	21
21	0
0	0	0	0	0	0	0
1	6	1	4	0	2	2
2	10	5	0	5	0	0
3	9	0	0	0	4	0
4	3	0	2	4	0	5
5	4	3	0	2	0	0
6	10	2	0	0	0	5
7	9	3	5	5	3	2
8	8	5	1	0	0	0
9	3	0	0	5	0	3
10	4	0	5	0	0	0
11	3	1	5	0	3	5
12	2	3	2	2	3	0
13	4	1	0	0	2	0
14	1	4	1	1	1	0
15	1	0	0	4	0	1
16	7	1	0	3	0	4
17	2	0	3	0	2	0
18	5	0	0	0	3	1
19	1	1	0	0	0	5
20	8	0	2	0	0	0
21	0	0	0	0	0	0
7	7	8	6	7
